c 9th DIMACS Implementation Challenge: Shortest Paths
c http://www.dis.uniroma1.it/~challenge9
c Sample graph file
c
p sp 7 11
a 1 2 2
a 1 3 1
a 2 3 8
a 2 4 0
a 3 4 1
a 3 5 0
a 4 5 2
a 4 6 8
a 5 6 3
a 6 7 5
a 5 7 7